
Log started (V12.10.0.0) Thu Apr  1 13:23:45 2021


Problem 'asset.lp' read.
Read time = 0.01 sec. (0.54 ticks)
New value for default parallel thread count: 1
New value for time limit in seconds: 150
Version identifier: 12.10.0.0 | 2019-11-26 | 843d4de
CPXPARAM_Threads                                 1
CPXPARAM_TimeLimit                               150
Found incumbent of value 0.000000 after 0.00 sec. (0.15 ticks)
Tried aggregator 3 times.
MIP Presolve eliminated 1448 rows and 604 columns.
MIP Presolve modified 3959 coefficients.
Aggregator did 1633 substitutions.
Reduced MIP has 1725 rows, 2415 columns, and 10103 nonzeros.
Reduced MIP has 2130 binaries, 231 generals, 0 SOSs, and 0 indicators.
Presolve time = 0.02 sec. (23.59 ticks)
Probing fixed 42 vars, tightened 7 bounds.
Probing time = 0.02 sec. (11.04 ticks)
Cover probing fixed 0 vars, tightened 32 bounds.
Tried aggregator 1 time.
Detecting symmetries...
MIP Presolve eliminated 64 rows and 63 columns.
MIP Presolve modified 438 coefficients.
Reduced MIP has 1661 rows, 2352 columns, and 9564 nonzeros.
Reduced MIP has 2074 binaries, 224 generals, 0 SOSs, and 0 indicators.
Presolve time = 0.01 sec. (9.07 ticks)
Probing time = 0.00 sec. (2.94 ticks)
Clique table members: 6266.
MIP emphasis: balance optimality and feasibility.
MIP search method: dynamic search.
Parallel mode: none, using 1 thread.
Root relaxation solution time = 0.04 sec. (65.52 ticks)

        Nodes                                         Cuts/
   Node  Left     Objective  IInf  Best Integer    Best Bound    ItCnt     Gap

*     0+    0                            0.0000      453.0000              --- 
      0     0      428.5431   337        0.0000      428.5431     1024     --- 
      0     0      422.6041   337        0.0000     Cuts: 515     1926     --- 
      0     0      419.8508   337        0.0000     Cuts: 515     3420     --- 
      0     0      419.7442   337        0.0000     Cuts: 515     4124     --- 
      0     0      419.6629   337        0.0000     Cuts: 515     5168     --- 
      0     0      419.6250   337        0.0000     Cuts: 515     6012     --- 
Detecting symmetries...
      0     0      419.5000   337        0.0000     Cuts: 514     7108     --- 
      0     0      419.4573   337        0.0000     Cuts: 515     8175     --- 
      0     0      419.0640   337        0.0000     Cuts: 515     8840     --- 
      0     0      419.0640   337        0.0000     Cuts: 438     9837     --- 
      0     0      419.0640   337        0.0000     Cuts: 111    10501     --- 
      0     0      418.5008   337        0.0000     Cuts: 515    14015     --- 
      0     0      418.3784   337        0.0000     Cuts: 515    14917     --- 
      0     0      418.3679   337        0.0000     Cuts: 515    15564     --- 
*     0+    0                           15.0000      418.3679              --- 
*     0+    0                          162.0000      418.3679           158.25%
*     0+    0                          165.0000      418.3679           153.56%
*     0+    0                          171.0000      418.3679           144.66%
      0     0        cutoff            171.0000      418.3679    15564  144.66%
Detecting symmetries...
      0     2      418.3679   387      171.0000      418.3679    15564  144.66%
Elapsed time = 2.93 sec. (3978.53 ticks, tree = 0.01 MB, solutions = 4)
      5     7      417.2348   344      171.0000      418.3679    17951  144.66%
     14    16      415.5939   339      171.0000      418.3679    20912  144.66%
     20    22      417.8663   303      171.0000      418.3679    22921  144.66%
     26    28      406.3036   303      171.0000      418.3679    25984  144.66%
     35    37      409.8640   291      171.0000      418.3679    28949  144.66%
     40    42      413.0144   285      171.0000      418.3679    30693  144.66%
     47    49      404.6969   311      171.0000      418.3679    34148  144.66%
     54    56      397.0454   297      171.0000      418.3679    37508  144.66%
     76    73      391.4171   247      171.0000      418.3679    40089  144.66%
    153   145      344.2500   181      171.0000      418.3679    49068  144.66%
Elapsed time = 5.42 sec. (7539.23 ticks, tree = 1.57 MB, solutions = 4)
    243   224      415.1046   368      171.0000      418.2757    58782  144.61%
    272   253      412.0439   335      171.0000      418.2757    67137  144.61%
    335   308      390.0000   217      171.0000      418.2757    76920  144.61%
*   420+  384                          258.0000      418.2757            62.12%
    465   431      328.1792   111      258.0000      418.2757    87089   62.12%

Performing restart 1

Repeating presolve.
Tried aggregator 1 time.
MIP Presolve eliminated 1 rows and 0 columns.
MIP Presolve modified 2040 coefficients.
Reduced MIP has 1660 rows, 2352 columns, and 8142 nonzeros.
Reduced MIP has 2074 binaries, 224 generals, 0 SOSs, and 0 indicators.
Presolve time = 0.01 sec. (7.19 ticks)
Tried aggregator 1 time.
Reduced MIP has 1660 rows, 2352 columns, and 8142 nonzeros.
Reduced MIP has 2074 binaries, 224 generals, 0 SOSs, and 0 indicators.
Presolve time = 0.01 sec. (5.94 ticks)
Represolve time = 0.05 sec. (39.22 ticks)
    530     0      401.7129   418      258.0000     Cuts: 515    95237   55.70%
    530     0      395.1817   418      258.0000     Cuts: 372    96701   53.17%
    530     0      392.1439   418      258.0000     Cuts: 293    97849   51.99%
    530     0      390.6956   418      258.0000     Cuts: 321   100343   51.43%
    530     0      389.7838   418      258.0000     Cuts: 323   102829   51.08%
    530     0      388.7242   418      258.0000     Cuts: 261   104260   50.67%
    530     0      388.1770   418      258.0000     Cuts: 205   105416   50.46%
    530     0      386.4671   418      258.0000     Cuts: 215   106940   49.79%
    530     0      385.4566   418      258.0000     Cuts: 300   109521   49.40%
*   530+    0                          264.0000      385.4566            46.01%
    530     0      384.6589   418      264.0000     Cuts: 290   112585   45.70%
    530     0      383.9777   418      264.0000     Cuts: 291   113964   45.45%
    530     0      383.7688   418      264.0000     Cuts: 229   114403   45.37%
*   530+    0                          270.0000      383.7688            42.14%
    530     0      383.6034   418      270.0000     Cuts: 166   114694   42.08%
    530     0      383.4593   418      270.0000     Cuts: 169   114974   42.02%
    530     0      383.3597   418      270.0000     Cuts: 139   118094   41.99%
    530     0      383.1196   418      270.0000     Cuts: 180   119340   41.90%
    530     0      382.8794   418      270.0000     Cuts: 222   120773   41.81%
    530     0      382.7912   418      270.0000     Cuts: 171   121192   41.77%
    530     0      382.6780   418      270.0000      Cuts: 96   121473   41.73%
    530     0      382.6414   418      270.0000     Cuts: 116   122101   41.72%
    530     0      382.6136   418      270.0000     Cuts: 111   122406   41.71%
    530     0      382.5940   418      270.0000     Cuts: 119   122726   41.70%
    530     0      382.5779   418      270.0000     Cuts: 100   123041   41.70%
    530     2      382.5779   446      270.0000      382.5758   123041   41.69%
    533     5      380.2271   369      270.0000      382.3694   126882   41.62%
    538    10      379.7737   355      270.0000      382.3448   130354   41.61%
    542    14      380.3447   378      270.0000      382.3448   135705   41.61%
    548    20      380.5995   380      270.0000      382.3448   140499   41.61%
    551    23      379.6181   349      270.0000      382.3448   143055   41.61%
Elapsed time = 25.92 sec. (35429.61 ticks, tree = 0.27 MB, solutions = 7)
    556    28      378.4188   373      270.0000      382.3448   148850   41.61%
    562    34      377.7341   363      270.0000      382.3448   153431   41.61%
    566    38      374.4789   316      270.0000      382.3448   159647   41.61%
    572    44      372.9147   311      270.0000      382.3448   165102   41.61%
    578    50      368.0691   326      270.0000      382.3448   171588   41.61%
    584    56      356.3522   272      270.0000      382.3448   176540   41.61%
    590    62      368.0499   310      270.0000      382.3448   179961   41.61%
    598    70      364.1122   301      270.0000      382.3448   182345   41.61%
    609    81      363.0818   299      270.0000      382.3448   186754   41.61%
    617    89      362.5016   291      270.0000      382.3448   191257   41.61%
Elapsed time = 33.08 sec. (45942.76 ticks, tree = 1.17 MB, solutions = 7)
    629   101      352.0473   279      270.0000      382.3448   196688   41.61%
    640   112      352.1882   264      270.0000      382.3448   203096   41.61%
    659   125    infeasible            270.0000      382.3448   206960   41.61%
    668   130      375.3666   406      270.0000      382.0838   214037   41.51%
    671   133      373.5298   365      270.0000      382.0838   218237   41.51%
    679   141      367.4374   340      270.0000      382.0838   225016   41.51%
    689   151      366.6957   319      270.0000      382.0838   232123   41.51%
    700   162      362.2375   319      270.0000      382.0838   240722   41.51%
    707   169      363.0080   299      270.0000      382.0838   247870   41.51%
    711   173      345.7494   319      270.0000      382.0838   251437   41.51%
Elapsed time = 40.64 sec. (57006.40 ticks, tree = 2.46 MB, solutions = 7)
    726   188      354.6679   285      270.0000      382.0838   261689   41.51%
    733   195      360.0178   286      270.0000      382.0838   267850   41.51%
    744   206      355.9481   298      270.0000      382.0838   273875   41.51%
    747   207        cutoff            270.0000      382.0838   284696   41.51%
    754   214      342.0456   261      270.0000      382.0838   290959   41.51%
    766   223      379.8409   378      270.0000      381.8133   299489   41.41%
    775   232      373.9187   330      270.0000      381.8133   305067   41.41%
    788   245      368.7280   303      270.0000      381.8133   311783   41.41%
    793   250      358.2665   297      270.0000      381.8133   316005   41.41%
    812   264      330.0294   234      270.0000      381.8133   323508   41.41%
Elapsed time = 48.03 sec. (67599.64 ticks, tree = 2.77 MB, solutions = 7)
    817   266      378.6201   391      270.0000      381.5053   327573   41.30%
    826   275      371.2730   327      270.0000      381.5053   335691   41.30%
    836   285      357.5643   299      270.0000      381.5053   344310   41.30%
    848   294      331.0150   240      270.0000      381.5053   354122   41.30%
    878   320      299.7833   189      270.0000      381.5053   363017   41.30%
    885   323      377.2059   359      270.0000      381.4275   368909   41.27%
    894   332      371.1145   353      270.0000      381.4275   376030   41.27%
    904   342      359.9114   322      270.0000      381.4275   384352   41.27%
    915   353      350.8343   264      270.0000      381.4275   391975   41.27%
    927   365      309.9330   262      270.0000      381.4275   400879   41.27%
Elapsed time = 54.96 sec. (77644.01 ticks, tree = 2.87 MB, solutions = 7)
    948   381      281.2992   212      270.0000      381.4275   407294   41.27%
    965   391      368.0736   330      270.0000      381.2832   414474   41.22%
    974   400      358.9616   339      270.0000      381.2832   422434   41.22%
    981   407      351.9264   269      270.0000      381.2832   430815   41.22%
    994   416      350.8157   285      270.0000      381.2832   439402   41.22%
   1012   428      326.8856   276      270.0000      381.2832   448196   41.22%
   1043   447      319.7180   199      270.0000      381.2832   456625   41.22%
   1082   471      377.9258   377      270.0000      381.2685   464824   41.21%
   1090   479      369.7185   336      270.0000      381.2685   472010   41.21%
   1101   490      361.2000   311      270.0000      381.2685   481429   41.21%
Elapsed time = 62.04 sec. (88076.65 ticks, tree = 3.02 MB, solutions = 7)
   1112   501      335.4590   273      270.0000      381.2685   492213   41.21%
   1121   506      377.9613   393      270.0000      380.5996   497755   40.96%
   1130   515      361.0814   335      270.0000      380.5996   508240   40.96%
   1143   528      347.6167   280      270.0000      380.5996   517376   40.96%
   1161   546      338.0537   254      270.0000      380.5996   526788   40.96%
   1184   569      324.1049   234      270.0000      380.5996   535817   40.96%
   1202   579      377.5281   357      270.0000      380.4227   543021   40.90%
   1209   586      367.3842   353      270.0000      380.4227   550818   40.90%
   1212   589      362.7480   321      270.0000      380.4227   553861   40.90%
   1221   598      349.7615   264      270.0000      380.4227   562175   40.90%
Elapsed time = 69.32 sec. (98731.35 ticks, tree = 3.17 MB, solutions = 7)
   1233   610      330.1898   217      270.0000      380.4227   570878   40.90%
   1267   636      373.4404   385      270.0000      380.3348   579374   40.86%
   1273   642      362.1615   371      270.0000      380.3348   587463   40.86%
   1282   651      344.7341   301      270.0000      380.3348   595207   40.86%
   1296   659      375.9965   383      270.0000      380.3249   607234   40.86%
   1302   665      363.7239   382      270.0000      380.3249   616403   40.86%
   1307   670      357.3663   300      270.0000      380.3249   626283   40.86%
   1314   677      351.5501   286      270.0000      380.3249   634251   40.86%
   1326   688      343.0417   248      270.0000      380.3249   641702   40.86%
   1338   698      338.1839   246      270.0000      380.3249   649205   40.86%
Elapsed time = 77.65 sec. (110618.08 ticks, tree = 3.28 MB, solutions = 7)
   1356   716      334.1165   262      270.0000      380.3249   657713   40.86%
   1388   734      378.4725   393      270.0000      380.2221   666595   40.82%
   1393   739      368.3315   341      270.0000      380.2221   675864   40.82%
   1399   745      358.8313   316      270.0000      380.2221   684878   40.82%
   1419   763      328.4116   225      270.0000      380.2221   694384   40.82%
   1426   766      372.1165   376      270.0000      380.2165   700710   40.82%
   1434   774      365.7006   346      270.0000      380.2165   709172   40.82%
   1450   790      336.3670   237      270.0000      380.2165   718469   40.82%
   1457   793      371.6286   387      270.0000      379.8394   725567   40.68%
   1510   836      375.0609   395      270.0000      379.7631   761733   40.65%
Elapsed time = 87.41 sec. (124100.29 ticks, tree = 3.45 MB, solutions = 7)
*  1530+  850                          276.0000      379.7631            37.60%
   1543   861      356.0253   335      276.0000      379.7627   800936   37.60%
   1589   899      338.4072   233      276.0000      379.6875   831555   37.57%
   1631   936      349.6635   295      276.0000      379.6736   862208   37.56%
   1678   977      341.5173   273      276.0000      379.6258   891536   37.55%
   1724  1019      360.7952   340      276.0000      379.6245   921251   37.55%
   1773  1062      363.5676   353      276.0000      379.6052   954228   37.54%
   1837  1120      317.0561   191      276.0000      379.6052   991176   37.54%
   1913  1184      334.9238   232      276.0000      379.5350  1022913   37.51%
   1958  1225      343.9861   268      276.0000      379.5087  1058856   37.50%
   2038  1295      329.4322   257      276.0000      378.9971  1093416   37.32%
Elapsed time = 115.41 sec. (162741.70 ticks, tree = 4.04 MB, solutions = 8)
   2130  1377      375.4213   397      276.0000      378.9228  1122228   37.29%
   2174  1419      336.2281   196      276.0000      378.9228  1155247   37.29%
   2214  1447      373.0862   359      276.0000      378.6199  1176152   37.18%
   2255  1488      348.7332   256      276.0000      378.6199  1205427   37.18%
   2314  1543      332.3806   211      276.0000      378.5473  1237126   37.15%
   2371  1595      359.0841   344      276.0000      378.4704  1264110   37.13%
   2402  1623      331.3217   212      276.0000      378.4704  1296450   37.13%
Starting limited solution polishing.
   2456  1672      356.0360   316      276.0000      378.4342  1327458   37.11%
   2512  1719      363.9356   333      276.0000      378.2877  1360785   37.06%
*  2530+ 1727                          279.0000      378.2877            35.59%
*  2530+ 1726                          285.0000      378.2877            32.73%
   2533  1731      352.5012   297      285.0000      378.2877  1381785   32.73%
Elapsed time = 143.54 sec. (202010.79 ticks, tree = 4.62 MB, solutions = 10)
   2584  1762      372.8063   393      285.0000      378.2864  1418755   32.73%
*  2630+ 1806                          288.0000      378.2864            31.35%
*  2630+ 1805                          294.0000      378.2864            28.67%
Advanced basis not built.

GUB cover cuts applied:  162
Clique cuts applied:  97
Cover cuts applied:  28
Implied bound cuts applied:  100
Flow cuts applied:  15
Mixed integer rounding cuts applied:  143
Zero-half cuts applied:  99
Lift and project cuts applied:  29
Gomory fractional cuts applied:  14

Root node processing (before b&c):
  Real time             =    2.92 sec. (3970.70 ticks)
Sequential b&c:
  Real time             =  147.08 sec. (206756.04 ticks)
                          ------------
Total (root+branch&cut) =  150.00 sec. (210726.74 ticks)

Solution pool: 13 solutions saved.

MIP - Time limit exceeded, integer feasible:  Objective =  2.9400000000e+02
Current MIP best bound =  3.7828642713e+02 (gap = 84.2864, 28.67%)
Solution time =  150.00 sec.  Iterations = 1454850  Nodes = 2630 (1806)
Deterministic time = 210726.76 ticks  (1404.82 ticks/sec)


Incumbent solution
Variable Name           Solution Value
F                           294.000000
y16                           1.000000
y153                          1.000000
y159                          1.000000
y194                          1.000000
y251                          1.000000
y59                           1.000000
y64                           1.000000
y37                           1.000000
y126                          1.000000
y70                           1.000000
y90                           1.000000
y267                          1.000000
y36                           1.000000
y22                           1.000000
y134                          1.000000
y254                          1.000000
y79                           1.000000
y168                          1.000000
y169                          1.000000
y10                           1.000000
y263                          1.000000
y8                            1.000000
y114                          1.000000
y28                           1.000000
y86                           1.000000
y88                           1.000000
y150                          1.000000
y197                          1.000000
y149                          1.000000
y196                          1.000000
y255                          1.000000
y133                          1.000000
y205                          1.000000
y213                          1.000000
y224                          1.000000
x167x251x1                    1.000000
x181x153x1                    1.000000
x78x251x1                     1.000000
x135x159x1                    1.000000
x274x153x1                    1.000000
x262x70x1                     1.000000
x261x90x1                     1.000000
x153x79x1                     1.000000
x153x169x1                    1.000000
x167x16x2                     1.000000
x162x22x2                     1.000000
x135x64x2                     1.000000
x193x159x2                    1.000000
x193x59x2                     1.000000
x274x194x2                    1.000000
x53x59x2                      1.000000
x53x134x2                     1.000000
x116x126x2                    1.000000
x181x194x3                    1.000000
x162x16x3                     1.000000
x241x64x3                     1.000000
x241x22x3                     1.000000
x58x37x3                      2.000000
x262x70x3                     1.000000
x261x90x3                     1.000000
x116x8x3                      1.000000
x16x126x2                     1.000000
x16x267x3                     1.000000
x159x36x1                     1.000000
x159x36x2                     1.000000
x194x267x2                    1.000000
x194x134x3                    1.000000
x251x10x1                     2.000000
x59x213x2                     1.000000
x59x224x2                     1.000000
x64x254x2                     1.000000
x64x8x3                       1.000000
x37x254x3                     1.000000
x37x168x3                     1.000000
x126x86x2                     1.000000
x126x224x2                    1.000000
x70x28x1                      1.000000
x70x28x3                      1.000000
x90x88x1                      1.000000
x90x263x3                     1.000000
x267x255x2                    1.000000
x267x88x3                     1.000000
x36x255x1                     1.000000
x36x196x2                     1.000000
x22x168x2                     1.000000
x22x263x3                     1.000000
x134x213x2                    1.000000
x134x197x3                    1.000000
x254x114x2                    1.000000
x254x150x3                    1.000000
x79x114x1                     1.000000
x79x150x1                     1.000000
x168x0x2                      1.000000
x168x133x3                    1.000000
x169x86x1                     1.000000
x169x149x1                    1.000000
x10x205x1                     2.000000
x263x196x3                    1.000000
x263x133x3                    1.000000
x8x197x3                      1.000000
x8x149x3                      1.000000
x114x0x1                      1.000000
x114x0x2                      1.000000
x28x0x1                       1.000000
x28x0x3                       1.000000
x86x0x1                       1.000000
x86x0x2                       1.000000
x88x0x1                       1.000000
x88x0x3                       1.000000
x150x0x1                      1.000000
x150x0x3                      1.000000
x197x0x3                      2.000000
x149x0x1                      1.000000
x149x0x3                      1.000000
x196x0x2                      1.000000
x196x0x3                      1.000000
x255x0x1                      1.000000
x255x0x2                      1.000000
x133x0x3                      2.000000
x205x0x1                      2.000000
x213x0x2                      2.000000
x224x0x2                      2.000000
s167                          4.736467
s16                           6.306079
z167z16z2                     1.000000
s153                          6.319531
s154                          6.466405
s159                          6.523125
s194                          6.409165
s251                          6.243315
z167z251z1                    1.000000
s148                          6.764361
s59                           6.923722
s64                           6.604649
s84                           6.170000
s60                           7.202570
z167z60z2                     1.000000
s156                          7.410000
s131                          6.420000
z167z131z1                    1.000000
s126                          7.466356
z167z126z2                    1.000000
s226                          6.530000
z167z226z1                    1.000000
s70                           7.529951
s90                           6.957166
s187                          7.670000
s77                           7.680000
z167z77z2                     1.000000
s66                           6.700000
z167z66z1                     1.000000
s17                           7.740000
s267                          7.750000
s268                          6.750000
z167z268z1                    1.000000
s36                           7.790000
s22                           6.860000
s134                          7.874878
s254                          7.786613
s206                          7.996262
z167z206z2                    1.000000
s103                          7.030000
s89                           8.110000
z167z89z2                     1.000000
s272                          7.130000
z167z272z1                    1.000000
s79                           7.720474
z167z79z1                     1.000000
s47                           8.210000
s5                            7.250000
s222                          8.360000
z167z222z1                    1.000000
s171                          8.370000
s168                          8.089918
s169                          7.741695
z167z169z1                    1.000000
s10                           8.207364
z167z10z1                     1.000000
s230                          7.520000
s74                           8.590000
s114                          8.920000
s76                           8.930000
s189                          8.980000
z167z189z1                    1.000000
s28                           8.990000
s86                           9.000064
s88                           9.130000
s218                          9.160000
z167z218z1                    1.000000
s150                          9.200000
s257                          8.300000
z167z257z1                    1.000000
s233                          9.360000
s143                          9.380000
s149                          9.440000
s196                          9.440000
s247                          9.450000
z167z247z1                    1.000000
s255                          9.450000
s205                          9.470000
z167z205z1                    1.000000
s213                          9.490000
z167z213z2                    1.000000
s224                          9.500000
z167z224z2                    1.000000
s181                          4.910542
z181z153z1                    1.000000
z181z194z3                    1.000000
s215                          6.000000
s37                           6.683908
z181z66z1                     1.000000
z181z268z1                    1.000000
z181z272z1                    1.000000
z181z79z1                     1.000000
z181z222z1                    1.000000
z181z169z1                    1.000000
z181z10z1                     1.000000
s39                           8.109095
z181z39z3                     1.000000
s263                          8.350556
z181z263z3                    1.000000
s8                            8.111359
z181z8z3                      1.000000
z181z189z1                    1.000000
z181z218z1                    1.000000
s3                            9.220000
z181z3z3                      1.000000
s202                          9.270000
z181z202z3                    1.000000
s197                          9.300000
z181z197z3                    1.000000
z181z257z1                    1.000000
s238                          9.420000
z181z238z3                    1.000000
z181z247z1                    1.000000
s133                          9.470000
z181z133z3                    1.000000
z181z205z1                    1.000000
s78                           4.703893
z78z251z1                     1.000000
z78z131z1                     1.000000
z78z226z1                     1.000000
z78z66z1                      1.000000
z78z268z1                     1.000000
z78z272z1                     1.000000
z78z79z1                      1.000000
z78z222z1                     1.000000
z78z169z1                     1.000000
z78z10z1                      1.000000
z78z189z1                     1.000000
z78z218z1                     1.000000
z78z257z1                     1.000000
z78z247z1                     1.000000
z78z205z1                     1.000000
s162                          5.133910
z162z16z3                     1.000000
z162z126z2                    1.000000
z162z77z2                     1.000000
z162z22z2                     1.000000
z162z206z2                    1.000000
z162z89z2                     1.000000
z162z39z3                     1.000000
z162z263z3                    1.000000
z162z8z3                      1.000000
z162z3z3                      1.000000
z162z202z3                    1.000000
z162z197z3                    1.000000
z162z238z3                    1.000000
z162z133z3                    1.000000
z162z213z2                    1.000000
z162z224z2                    1.000000
s135                          4.992712
s19                           6.000000
z135z159z1                    1.000000
s259                          6.000000
z135z64z2                     1.000000
z135z60z2                     1.000000
z135z131z1                    1.000000
z135z126z2                    1.000000
z135z226z1                    1.000000
z135z77z2                     1.000000
z135z66z1                     1.000000
z135z268z1                    1.000000
z135z206z2                    1.000000
z135z89z2                     1.000000
z135z272z1                    1.000000
z135z79z1                     1.000000
z135z222z1                    1.000000
z135z169z1                    1.000000
z135z10z1                     1.000000
z135z189z1                    1.000000
z135z218z1                    1.000000
z135z257z1                    1.000000
z135z247z1                    1.000000
z135z205z1                    1.000000
z135z213z2                    1.000000
z135z224z2                    1.000000
s193                          5.280227
z193z159z2                    1.000000
z193z59z2                     1.000000
z193z206z2                    1.000000
z193z89z2                     1.000000
z193z213z2                    1.000000
z193z224z2                    1.000000
s274                          5.132149
z274z153z1                    1.000000
z274z194z2                    1.000000
z274z126z2                    1.000000
z274z77z2                     1.000000
z274z66z1                     1.000000
z274z268z1                    1.000000
z274z206z2                    1.000000
z274z89z2                     1.000000
z274z272z1                    1.000000
z274z79z1                     1.000000
z274z222z1                    1.000000
z274z169z1                    1.000000
z274z10z1                     1.000000
z274z189z1                    1.000000
z274z218z1                    1.000000
z274z257z1                    1.000000
z274z247z1                    1.000000
z274z205z1                    1.000000
z274z213z2                    1.000000
z274z224z2                    1.000000
s53                           5.754534
z53z59z2                      1.000000
z53z134z2                     1.000000
z53z89z2                      1.000000
z53z213z2                     1.000000
z53z224z2                     1.000000
s241                          5.240000
z241z64z3                     1.000000
z241z22z3                     1.000000
z241z39z3                     1.000000
z241z263z3                    1.000000
z241z8z3                      1.000000
z241z3z3                      1.000000
z241z202z3                    1.000000
z241z197z3                    1.000000
z241z238z3                    1.000000
z241z133z3                    1.000000
s58                           5.500000
z58z37z3                      1.000000
z58z39z3                      1.000000
z58z263z3                     1.000000
z58z8z3                       1.000000
z58z3z3                       1.000000
z58z202z3                     1.000000
z58z197z3                     1.000000
z58z238z3                     1.000000
z58z133z3                     1.000000
s262                          5.991102
z262z70z1                     1.000000
z262z70z3                     1.000000
z262z263z3                    1.000000
z262z8z3                      1.000000
z262z189z1                    1.000000
z262z218z1                    1.000000
z262z3z3                      1.000000
z262z202z3                    1.000000
z262z197z3                    1.000000
z262z257z1                    1.000000
z262z238z3                    1.000000
z262z247z1                    1.000000
z262z133z3                    1.000000
z262z205z1                    1.000000
s261                          5.848888
z261z90z1                     1.000000
z261z90z3                     1.000000
z261z272z1                    1.000000
z261z79z1                     1.000000
z261z169z1                    1.000000
z261z10z1                     1.000000
z261z39z3                     1.000000
z261z263z3                    1.000000
z261z8z3                      1.000000
z261z189z1                    1.000000
z261z218z1                    1.000000
z261z3z3                      1.000000
z261z202z3                    1.000000
z261z197z3                    1.000000
z261z257z1                    1.000000
z261z238z3                    1.000000
z261z247z1                    1.000000
z261z133z3                    1.000000
z261z205z1                    1.000000
z153z79z1                     1.000000
z153z169z1                    1.000000
z153z247z1                    1.000000
z153z205z1                    1.000000
s116                          5.970000
z116z126z2                    1.000000
z116z39z3                     1.000000
z116z263z3                    1.000000
z116z8z3                      1.000000
z116z3z3                      1.000000
z116z202z3                    1.000000
z116z197z3                    1.000000
z116z238z3                    1.000000
z116z133z3                    1.000000
z116z213z2                    1.000000
z116z224z2                    1.000000
z16z126z2                     1.000000
z16z267z3                     1.000000
z16z3z3                       1.000000
z16z202z3                     1.000000
z16z197z3                     1.000000
z16z238z3                     1.000000
z16z133z3                     1.000000
z16z213z2                     1.000000
z16z224z2                     1.000000
z19z213z2                     1.000000
z19z224z2                     1.000000
z154z3z3                      1.000000
z154z202z3                    1.000000
z154z197z3                    1.000000
z154z238z3                    1.000000
z154z133z3                    1.000000
z154z213z2                    1.000000
z154z224z2                    1.000000
z159z36z1                     1.000000
z159z36z2                     1.000000
z159z247z1                    1.000000
z159z205z1                    1.000000
z159z213z2                    1.000000
z159z224z2                    1.000000
z194z267z2                    1.000000
z194z134z3                    1.000000
z194z3z3                      1.000000
z194z202z3                    1.000000
z194z197z3                    1.000000
z194z238z3                    1.000000
z194z133z3                    1.000000
z194z213z2                    1.000000
z194z224z2                    1.000000
z215z8z3                      1.000000
z215z3z3                      1.000000
z215z202z3                    1.000000
z215z197z3                    1.000000
z215z238z3                    1.000000
z215z133z3                    1.000000
s232                          6.000000
s240                          6.000000
z259z213z2                    1.000000
z259z224z2                    1.000000
z251z10z1                     1.000000
z251z247z1                    1.000000
z251z205z1                    1.000000
z148z206z2                    1.000000
z148z213z2                    1.000000
z148z224z2                    1.000000
z59z213z2                     1.000000
z59z224z2                     1.000000
z64z254z2                     1.000000
z64z8z3                       1.000000
z64z3z3                       1.000000
z64z202z3                     1.000000
z64z197z3                     1.000000
z64z238z3                     1.000000
z64z133z3                     1.000000
z64z213z2                     1.000000
z64z224z2                     1.000000
z84z213z2                     1.000000
z84z224z2                     1.000000
z60z213z2                     1.000000
z60z224z2                     1.000000
z37z254z3                     1.000000
z37z168z3                     1.000000
z37z3z3                       1.000000
z37z202z3                     1.000000
z37z197z3                     1.000000
z37z238z3                     1.000000
z37z133z3                     1.000000
z156z247z1                    1.000000
z156z205z1                    1.000000
z156z213z2                    1.000000
z156z224z2                    1.000000
z131z247z1                    1.000000
z131z205z1                    1.000000
z126z86z2                     1.000000
z126z213z2                    1.000000
z126z224z2                    1.000000
z226z247z1                    1.000000
z226z205z1                    1.000000
z70z28z1                      1.000000
z70z28z3                      1.000000
z70z3z3                       1.000000
z70z202z3                     1.000000
z70z197z3                     1.000000
z70z238z3                     1.000000
z70z247z1                     1.000000
z70z133z3                     1.000000
z70z205z1                     1.000000
z90z263z3                     1.000000
z90z88z1                      1.000000
z90z3z3                       1.000000
z90z202z3                     1.000000
z90z238z3                     1.000000
z90z247z1                     1.000000
z90z133z3                     1.000000
z90z205z1                     1.000000
z187z247z1                    1.000000
z187z205z1                    1.000000
z187z213z2                    1.000000
z187z224z2                    1.000000
z77z213z2                     1.000000
z77z224z2                     1.000000
z66z247z1                     1.000000
z66z205z1                     1.000000
z17z247z1                     1.000000
z17z205z1                     1.000000
z17z213z2                     1.000000
z17z224z2                     1.000000
z267z88z3                     1.000000
z267z3z3                      1.000000
z267z202z3                    1.000000
z267z238z3                    1.000000
z267z255z2                    1.000000
z267z133z3                    1.000000
z267z213z2                    1.000000
z267z224z2                    1.000000
z268z247z1                    1.000000
z268z205z1                    1.000000
z36z196z2                     1.000000
z36z247z1                     1.000000
z36z255z1                     1.000000
z36z205z1                     1.000000
z36z213z2                     1.000000
z36z224z2                     1.000000
z22z168z2                     1.000000
z22z263z3                     1.000000
z22z3z3                       1.000000
z22z202z3                     1.000000
z22z238z3                     1.000000
z22z133z3                     1.000000
z22z213z2                     1.000000
z22z224z2                     1.000000
z134z202z3                    1.000000
z134z197z3                    1.000000
z134z238z3                    1.000000
z134z133z3                    1.000000
z134z213z2                    1.000000
z134z224z2                    1.000000
z254z114z2                    1.000000
z254z150z3                    1.000000
z254z133z3                    1.000000
z254z224z2                    1.000000
z206z213z2                    1.000000
z206z224z2                    1.000000
z272z205z1                    1.000000
z79z114z1                     1.000000
z79z150z1                     1.000000
z79z205z1                     1.000000
z168z133z3                    1.000000
z169z86z1                     1.000000
z169z149z1                    1.000000
z10z205z1                     1.000000
z39z197z3                     1.000000
z263z196z3                    1.000000
z263z133z3                    1.000000
z8z197z3                      1.000000
z8z149z3                      1.000000
All other variables in the range 1-4661 are 0.
